Maximize
  13 x0 - 27 x1 - 12 x2 - 17 x3 + 25 x4 - 33 x5 + 16 x6 - 11 x7 + 31 x8
   + 36 x9 - 44 x10 - 17 x11 - 11 x12 + 38 x13 - 17 x14 - 3 x15 + 3 x16
   + 3 x17 + 22 x18 - 45 x19 - x20 + 9 x21 - 29 x22 + 40 x23 + 14 x24
   + 25 x25 + 43 x26 - 36 x27 - 21 x28 + 11 x29 + [ - 29 x0 ^2 - 86 x0 * x1
   - 76 x0 * x2 + 42 x0 * x3 - 64 x0 * x4 + 6 x0 * x5 + 2 x0 * x6
   - 68 x0 * x7 + 96 x0 * x8 + 98 x0 * x9 + 32 x0 * x10 - 20 x0 * x11
   - 52 x0 * x12 - 64 x0 * x13 + 4 x0 * x14 + 60 x0 * x15 + 70 x0 * x16
   - 30 x0 * x17 - 52 x0 * x18 - 94 x0 * x19 - 46 x0 * x20 - 12 x0 * x21
   - 26 x0 * x22 - 34 x0 * x23 + 52 x0 * x24 + 32 x0 * x25 + 56 x0 * x26
   - 74 x0 * x27 - 4 x0 * x28 - 66 x0 * x29 + 28 x1 ^2 - 18 x1 * x2
   + 50 x1 * x3 - 70 x1 * x4 - 26 x1 * x5 - 52 x1 * x6 + 6 x1 * x7
   + 58 x1 * x8 + 14 x1 * x9 - 14 x1 * x10 + 62 x1 * x11 + 48 x1 * x12
   - 94 x1 * x13 + 30 x1 * x14 + 84 x1 * x15 + 26 x1 * x16 - 64 x1 * x17
   - 48 x1 * x18 + 78 x1 * x19 - 78 x1 * x20 - 28 x1 * x21 + 70 x1 * x22
   - 36 x1 * x24 - 62 x1 * x25 + 72 x1 * x26 + 22 x1 * x27 - 80 x1 * x28
   - 16 x1 * x29 - x2 ^2 + 28 x2 * x3 + 14 x2 * x4 + 10 x2 * x5
   - 50 x2 * x6 - 76 x2 * x7 - 50 x2 * x8 + 88 x2 * x9 - 26 x2 * x10
   + 22 x2 * x11 + 38 x2 * x12 - 78 x2 * x13 + 28 x2 * x14 - 70 x2 * x15
   - 12 x2 * x16 - 76 x2 * x17 - 14 x2 * x18 - 80 x2 * x19 - 18 x2 * x20
   - 92 x2 * x21 - 26 x2 * x22 + 54 x2 * x23 - 80 x2 * x24 - 58 x2 * x25
   - 28 x2 * x26 - 24 x2 * x27 + 86 x2 * x28 - 66 x2 * x29 + 42 x3 ^2
   + 28 x3 * x4 - 52 x3 * x5 - 56 x3 * x6 + 30 x3 * x7 - 62 x3 * x8
   + 98 x3 * x9 + 66 x3 * x11 + 48 x3 * x12 - 84 x3 * x13 - 70 x3 * x14
   + 68 x3 * x15 + 68 x3 * x16 + 78 x3 * x17 + 6 x3 * x18 + 26 x3 * x19
   + 70 x3 * x20 - 10 x3 * x21 + 6 x3 * x22 + 44 x3 * x23 - 88 x3 * x24
   - 10 x3 * x25 - 16 x3 * x26 - 30 x3 * x27 - 60 x3 * x28 - 74 x3 * x29
   - 31 x4 ^2 - 58 x4 * x5 - 70 x4 * x6 - 98 x4 * x7 - 52 x4 * x8
   + 60 x4 * x9 + 38 x4 * x10 + 98 x4 * x11 + 76 x4 * x12 - 52 x4 * x13
   - 94 x4 * x14 - 92 x4 * x15 - 42 x4 * x16 - 78 x4 * x17 + 52 x4 * x18
   + 4 x4 * x19 + 6 x4 * x20 - 64 x4 * x21 - 36 x4 * x22 + 24 x4 * x23
   - 12 x4 * x24 + 30 x4 * x25 - 86 x4 * x26 + 18 x4 * x27 - 88 x4 * x28
   + 40 x4 * x29 - 13 x5 ^2 - 40 x5 * x6 - 86 x5 * x7 + 80 x5 * x8
   + 18 x5 * x9 + 94 x5 * x10 - 94 x5 * x11 + 24 x5 * x12 + 4 x5 * x13
   - 96 x5 * x14 - 92 x5 * x15 + 92 x5 * x16 - 36 x5 * x17 + 22 x5 * x18
   - 8 x5 * x19 - 94 x5 * x20 + 76 x5 * x21 + 82 x5 * x22 - 54 x5 * x23
   - 34 x5 * x24 - 26 x5 * x25 - 30 x5 * x26 - 92 x5 * x27 - 22 x5 * x28
   + 58 x5 * x29 - 38 x6 ^2 - 32 x6 * x7 + 4 x6 * x8 + 52 x6 * x9
   - 64 x6 * x10 - 10 x6 * x11 + 10 x6 * x12 + 60 x6 * x13 + 44 x6 * x14
   + 10 x6 * x15 + 92 x6 * x16 + 8 x6 * x17 - 18 x6 * x18 - 18 x6 * x19
   - 94 x6 * x20 - 34 x6 * x21 - 94 x6 * x22 + 22 x6 * x23 - 34 x6 * x24
   - 82 x6 * x25 - 36 x6 * x26 + 40 x6 * x27 + 90 x6 * x28 + 18 x6 * x29
   + 19 x7 ^2 - 40 x7 * x8 + 54 x7 * x9 + 80 x7 * x10 - 2 x7 * x11
   + 48 x7 * x12 + 96 x7 * x13 + 22 x7 * x14 - 24 x7 * x15 + 66 x7 * x16
   - 68 x7 * x17 + 54 x7 * x18 - 22 x7 * x19 + 68 x7 * x20 - 38 x7 * x21
   - 98 x7 * x22 - 68 x7 * x23 - 32 x7 * x24 + 20 x7 * x25 + 36 x7 * x26
   + 46 x7 * x27 - 46 x7 * x28 - 32 x7 * x29 - 41 x8 ^2 + 56 x8 * x9
   + 36 x8 * x10 - 18 x8 * x11 + 10 x8 * x12 + 18 x8 * x13 + 88 x8 * x14
   + 78 x8 * x15 + 62 x8 * x16 + 94 x8 * x17 + 4 x8 * x18 - 58 x8 * x19
   - 4 x8 * x20 - 20 x8 * x21 - 90 x8 * x22 - 70 x8 * x23 - 16 x8 * x24
   - 6 x8 * x25 - 36 x8 * x26 + 58 x8 * x27 - 16 x8 * x28 - 24 x8 * x29
   - 49 x9 ^2 - 48 x9 * x10 + 26 x9 * x11 - 14 x9 * x12 + 10 x9 * x13
   + 20 x9 * x14 - 8 x9 * x15 - 64 x9 * x16 - 36 x9 * x17 + 42 x9 * x18
   + 10 x9 * x19 + 96 x9 * x20 + 22 x9 * x21 - 4 x9 * x22 + 98 x9 * x23
   + 18 x9 * x24 + 58 x9 * x26 - 70 x9 * x27 + 52 x9 * x28 - 44 x9 * x29
   + 26 x10 * x11 + 22 x10 * x12 + 32 x10 * x13 - 98 x10 * x14
   - 42 x10 * x15 - 80 x10 * x16 + 32 x10 * x17 - 30 x10 * x18
   - 24 x10 * x20 + 20 x10 * x21 - 88 x10 * x22 + 78 x10 * x23
   - 40 x10 * x24 + 76 x10 * x25 - 76 x10 * x26 - 48 x10 * x27
   + 10 x10 * x28 + 44 x10 * x29 - 47 x11 ^2 + 94 x11 * x12 - 10 x11 * x13
   + 34 x11 * x14 + 96 x11 * x15 + 4 x11 * x16 + 52 x11 * x17
   + 40 x11 * x18 - 68 x11 * x19 - 74 x11 * x20 + 48 x11 * x21
   + 46 x11 * x22 + 40 x11 * x23 + 94 x11 * x24 - 6 x11 * x25
   + 36 x11 * x26 + 32 x11 * x27 - 14 x11 * x28 - 52 x11 * x29 + 15 x12 ^2
   - 28 x12 * x13 - 56 x12 * x14 - 86 x12 * x15 - 54 x12 * x16
   + 16 x12 * x17 + 22 x12 * x18 + 80 x12 * x19 - 46 x12 * x20
   - 50 x12 * x21 - 84 x12 * x22 + 74 x12 * x23 + 24 x12 * x24
   - 32 x12 * x25 - 16 x12 * x26 - 20 x12 * x27 - 40 x12 * x28
   + 90 x12 * x29 + 48 x13 ^2 - 8 x13 * x14 - 48 x13 * x15 + 84 x13 * x16
   + 58 x13 * x17 + 28 x13 * x18 + 26 x13 * x19 - 4 x13 * x20
   + 22 x13 * x21 - 20 x13 * x22 - 34 x13 * x23 - 34 x13 * x24
   - 86 x13 * x25 + 54 x13 * x26 + 70 x13 * x27 - 8 x13 * x28 + 6 x13 * x29
   + 31 x14 ^2 + 78 x14 * x15 + 92 x14 * x16 - 76 x14 * x17 + 96 x14 * x18
   - 2 x14 * x19 - 38 x14 * x20 + 60 x14 * x21 + 62 x14 * x22
   + 12 x14 * x23 + 60 x14 * x24 - 70 x14 * x25 - 96 x14 * x26
   - 16 x14 * x27 + 24 x14 * x28 + 82 x14 * x29 - 18 x15 ^2 - 46 x15 * x16
   + 16 x15 * x17 - 4 x15 * x18 + 60 x15 * x19 + 26 x15 * x20
   - 18 x15 * x21 + 12 x15 * x22 - 34 x15 * x23 + 18 x15 * x24
   - 32 x15 * x25 + 62 x15 * x26 - 86 x15 * x28 - 84 x15 * x29 - 41 x16 ^2
   + 62 x16 * x17 - 66 x16 * x18 - 8 x16 * x19 + 70 x16 * x20
   - 62 x16 * x21 + 48 x16 * x22 + 64 x16 * x23 - 92 x16 * x24
   + 66 x16 * x25 - 84 x16 * x26 + 94 x16 * x27 - 64 x16 * x28
   + 64 x16 * x29 - 12 x17 ^2 + 70 x17 * x18 - 52 x17 * x19 + 20 x17 * x21
   - 72 x17 * x22 + 50 x17 * x23 - 98 x17 * x24 - 88 x17 * x25
   + 14 x17 * x26 + 32 x17 * x27 + 40 x17 * x29 + 26 x18 ^2 - 18 x18 * x19
   + 54 x18 * x20 + 70 x18 * x21 - 26 x18 * x22 + 92 x18 * x23
   - 40 x18 * x24 - 48 x18 * x25 + 32 x18 * x26 + 40 x18 * x27
   - 6 x18 * x28 + 52 x18 * x29 + 34 x19 ^2 - 44 x19 * x20 + 72 x19 * x21
   - 70 x19 * x22 + 10 x19 * x23 - 12 x19 * x24 + 62 x19 * x25
   - 20 x19 * x26 - 2 x19 * x27 - 4 x19 * x28 + 50 x19 * x29 - 23 x20 ^2
   - 70 x20 * x21 + 2 x20 * x22 - 78 x20 * x23 + 6 x20 * x24 - 24 x20 * x25
   - 4 x20 * x26 - 58 x20 * x27 - 42 x20 * x28 + 88 x20 * x29 - 36 x21 ^2
   + 64 x21 * x22 - 78 x21 * x23 + 70 x21 * x24 + 90 x21 * x25
   + 8 x21 * x26 + 52 x21 * x27 + 20 x21 * x28 - 23 x22 ^2 + 76 x22 * x23
   + 74 x22 * x24 - 88 x22 * x25 + 40 x22 * x26 + 62 x22 * x27
   - 24 x22 * x28 + 76 x22 * x29 - 10 x23 ^2 + 26 x23 * x24 + 96 x23 * x25
   - 46 x23 * x26 + 26 x23 * x27 + 4 x23 * x28 - 20 x23 * x29 + 25 x24 ^2
   + 88 x24 * x25 - 40 x24 * x26 + 50 x24 * x27 - 86 x24 * x28
   - 60 x24 * x29 - 33 x25 ^2 + 78 x25 * x26 - 90 x25 * x27 + 76 x25 * x28
   - 60 x25 * x29 - 33 x26 ^2 + 74 x26 * x27 - 30 x26 * x28 - 66 x26 * x29
   - 6 x27 ^2 + 12 x27 * x28 + 50 x27 * x29 + 38 x28 ^2 - 56 x28 * x29
   + 20 x29 ^2 ] / 2 
Subject To
Bounds
 x0 <= 1
 x1 <= 1
 x2 <= 1
 x3 <= 1
 x4 <= 1
 x5 <= 1
 x6 <= 1
 x7 <= 1
 x8 <= 1
 x9 <= 1
 x10 <= 1
 x11 <= 1
 x12 <= 1
 x13 <= 1
 x14 <= 1
 x15 <= 1
 x16 <= 1
 x17 <= 1
 x18 <= 1
 x19 <= 1
 x20 <= 1
 x21 <= 1
 x22 <= 1
 x23 <= 1
 x24 <= 1
 x25 <= 1
 x26 <= 1
 x27 <= 1
 x28 <= 1
 x29 <= 1
End
